521
5
60390
480
 0 1 1 103 154  10 0 47 4 42 19 40 41 13 18 0
 0 1 1 104 158  13 0 12 17 37 44 15 45 33 39 10 49 5 0
 0 1 1 99 159  12 0 38 9 30 34 50 16 21 29 2 11 0
 0 1 1 118 154  14 0 8 26 31 28 3 36 35 20 22 1 32 46 0
 0 1 1 97 152  11 0 27 48 23 7 43 24 25 14 6 0
